c Reduced graph for GEOM20b generated by Cyril Grelier
p edge 13 22
e 1 6
e 1 7
e 1 9
e 1 11
e 1 13
e 2 4
e 2 6
e 2 8
e 3 9
e 3 11
e 3 12
e 4 8
e 5 10
e 5 12
e 6 11
e 7 10
e 7 13
e 9 10
e 9 11
e 9 12
e 10 12
e 10 13
